p cnf 22 30
-18 18 6 0
-18 18 21 0
-18 6 -21 0
18 -6 -21 0
18 -18 21 0
18 -18 -6 0
-17 9 17 0
-17 9 22 0
-17 17 -22 0
17 -17 -22 0
17 -9 22 0
17 -9 -17 0
7 19 0
7 10 0
-7 -19 -10 0
9 13 0
9 18 0
-9 -13 -18 0
6 15 0
6 1 0
-6 -15 -1 0
16 4 0
16 14 0
-16 -4 -14 0
18 17 0
18 2 0
-18 -17 -2 0
8 5 0
8 16 0
-8 -5 -16 0
